Route #1: 2 34 48 5
Route #2: 4 18 26 47 25 7 40
Route #3: 32 19 29 28 1
Route #4: 21 42 17 8 15
Route #5: 41 45 39 35 10
Route #6: 14 38 22 46 23 13 3
Route #7: 30 36 43 11 16 24 49 9 33 12
Route #8: 6 31 20 27 37 44
Cost 1339